\ Model master model
\ LP format - for model browsing. Use MPS format to capture full model detail.
Minimize
  0.5 L + 0.5 omega
Subject To
 epigraph[0]: 2248.455201513562 x[0,1] + 1659.11390300386 x[0,2]
   + 445.0718900849622 x[0,3] + 116.8962771531206 x[0,4] - L <= 0
 epigraph[1]: 2750.620586852036 x[1,0] + 1248.676895369809 x[1,2]
   + 2245.212816522511 x[1,3] + 2683.332058064563 x[1,4] - L <= 0
 epigraph[2]: 2093.397617837951 x[2,0] + 1287.891120304862 x[2,1]
   + 1535.101341024398 x[2,3] + 1975.4798599182 x[2,4] - L <= 0
 epigraph[3]: 748.0677242396846 x[3,0] + 3084.763077082876 x[3,1]
   + 2044.900963025531 x[3,2] + 613.4491378033165 x[3,4] - L <= 0
 epigraph[4]: 147.2736344645647 x[4,0] + 2763.454342287233 x[4,1]
   + 1972.519965621432 x[4,2] + 459.8245276702833 x[4,3] - L <= 0
 p: y[0] + y[1] + y[2] + y[3] + y[4] = 2
 x<y[0,0]: x[0,0] - y[0] <= 0
 x<y[0,1]: x[0,1] - y[1] <= 0
 x<y[0,2]: x[0,2] - y[2] <= 0
 x<y[0,3]: x[0,3] - y[3] <= 0
 x<y[0,4]: x[0,4] - y[4] <= 0
 x<y[1,0]: x[1,0] - y[0] <= 0
 x<y[1,1]: x[1,1] - y[1] <= 0
 x<y[1,2]: x[1,2] - y[2] <= 0
 x<y[1,3]: x[1,3] - y[3] <= 0
 x<y[1,4]: x[1,4] - y[4] <= 0
 x<y[2,0]: x[2,0] - y[0] <= 0
 x<y[2,1]: x[2,1] - y[1] <= 0
 x<y[2,2]: x[2,2] - y[2] <= 0
 x<y[2,3]: x[2,3] - y[3] <= 0
 x<y[2,4]: x[2,4] - y[4] <= 0
 x<y[3,0]: x[3,0] - y[0] <= 0
 x<y[3,1]: x[3,1] - y[1] <= 0
 x<y[3,2]: x[3,2] - y[2] <= 0
 x<y[3,3]: x[3,3] - y[3] <= 0
 x<y[3,4]: x[3,4] - y[4] <= 0
 x<y[4,0]: x[4,0] - y[0] <= 0
 x<y[4,1]: x[4,1] - y[1] <= 0
 x<y[4,2]: x[4,2] - y[2] <= 0
 x<y[4,3]: x[4,3] - y[3] <= 0
 x<y[4,4]: x[4,4] - y[4] <= 0
 sumx[0]: x[0,0] + x[0,1] + x[0,2] + x[0,3] + x[0,4] = 1
 sumx[1]: x[1,0] + x[1,1] + x[1,2] + x[1,3] + x[1,4] = 1
 sumx[2]: x[2,0] + x[2,1] + x[2,2] + x[2,3] + x[2,4] = 1
 sumx[3]: x[3,0] + x[3,1] + x[3,2] + x[3,3] + x[3,4] = 1
 sumx[4]: x[4,0] + x[4,1] + x[4,2] + x[4,3] + x[4,4] = 1
 R36: 1513.345408500583 y[1] + omega >= 1513.345408500583
 R37: - 1209.044686511695 y[0] - 1209.044686511695 y[1]
   - 1209.044686511695 y[2] + 1908.903154554571 y[3]
   - 1209.044686511695 y[4] + omega >= 437.7522779580058
 R38: - 1209.044686511695 y[0] - 1209.044686511695 y[1]
   - 1209.044686511695 y[2] + 1908.903154554571 y[3]
   - 1209.044686511695 y[4] + omega >= 437.7522779580058
 R39: - 1209.044686511695 y[0] - 1209.044686511695 y[1]
   - 1209.044686511695 y[2] + 1908.903154554571 y[3]
   - 1209.044686511695 y[4] + omega >= 437.7522779580058
 R40: - 1209.044686511695 y[0] - 1209.044686511695 y[1]
   - 1209.044686511695 y[2] + 1908.903154554571 y[3]
   - 1209.044686511695 y[4] + omega >= 437.7522779580058
 R41: - 1209.044686511695 y[0] - 1209.044686511695 y[1]
   - 1209.044686511695 y[2] + 1908.903154554571 y[3]
   - 1209.044686511695 y[4] + omega >= 437.7522779580058
 R42: - 1209.044686511695 y[0] - 1209.044686511695 y[1]
   - 1209.044686511695 y[2] + 1908.903154554571 y[3]
   - 1209.044686511695 y[4] + omega >= 437.7522779580058
 R43: - 1209.044686511695 y[0] - 1209.044686511695 y[1]
   - 1209.044686511695 y[2] + 1908.903154554571 y[3]
   - 1209.044686511695 y[4] + omega >= 437.7522779580058
 R44: - 1209.044686511695 y[0] - 1209.044686511695 y[1]
   - 1209.044686511695 y[2] + 1908.903154554571 y[3]
   - 1209.044686511695 y[4] + omega >= 437.7522779580058
 R45: - 1209.044686511695 y[0] - 1209.044686511695 y[1]
   - 1209.044686511695 y[2] + 1908.903154554571 y[3]
   - 1209.044686511695 y[4] + omega >= 437.7522779580058
 R46: - 1209.044686511695 y[0] - 1209.044686511695 y[1]
   - 1209.044686511695 y[2] + 1908.903154554571 y[3]
   - 1209.044686511695 y[4] + omega >= 437.7522779580058
 R47: - 1209.044686511695 y[0] - 1209.044686511695 y[1]
   - 1209.044686511695 y[2] + 1908.903154554571 y[3]
   - 1209.044686511695 y[4] + omega >= 437.7522779580058
 R48: - 1209.044686511695 y[0] - 1209.044686511695 y[1]
   - 1209.044686511695 y[2] + 1908.903154554571 y[3]
   - 1209.044686511695 y[4] + omega >= 437.7522779580058
 R49: - 1209.044686511695 y[0] - 1209.044686511695 y[1]
   - 1209.044686511695 y[2] + 1908.903154554571 y[3]
   - 1209.044686511695 y[4] + omega >= 437.7522779580058
Bounds
Binaries
 x[0,0] x[0,1] x[0,2] x[0,3] x[0,4] x[1,0] x[1,1] x[1,2] x[1,3] x[1,4]
 x[2,0] x[2,1] x[2,2] x[2,3] x[2,4] x[3,0] x[3,1] x[3,2] x[3,3] x[3,4]
 x[4,0] x[4,1] x[4,2] x[4,3] x[4,4] y[0] y[1] y[2] y[3] y[4]
End
